30
1 0 4
2 0 22
2 1 23
3 0 14
3 1 5
3 2 8
4 0 12
4 1 39
4 2 5
4 3 14
5 0 24
5 1 9
5 2 31
5 3 11
5 4 3
6 0 36
6 1 30
6 2 16
6 3 27
6 4 33
6 5 33
7 0 6
7 1 32
7 2 14
7 3 32
7 4 33
7 5 9
7 6 19
8 0 33
8 1 6
8 2 7
8 3 13
8 4 28
8 5 21
8 6 28
8 7 20
9 0 6
9 1 38
9 2 34
9 3 6
9 4 13
9 5 22
9 6 27
9 7 28
9 8 25
10 0 3
10 1 36
10 2 5
10 3 2
10 4 20
10 5 24
10 6 25
10 7 19
10 8 40
10 9 20
11 0 11
11 1 13
11 2 32
11 3 27
11 4 15
11 5 2
11 6 15
11 7 29
11 8 34
11 9 1
11 10 21
12 0 20
12 1 19
12 2 30
12 3 32
12 4 16
12 5 36
12 6 25
12 7 30
12 8 24
12 9 1
12 10 31
12 11 24
13 0 14
13 1 35
13 2 10
13 3 20
13 4 36
13 5 35
13 6 7
13 7 16
13 8 13
13 9 39
13 10 8
13 11 14
13 12 5
14 0 10
14 1 23
14 2 21
14 3 28
14 4 28
14 5 25
14 6 18
14 7 38
14 8 19
14 9 12
14 10 7
14 11 27
14 12 5
14 13 22
15 0 14
15 1 11
15 2 35
15 3 3
15 4 22
15 5 7
15 6 14
15 7 4
15 8 5
15 9 4
15 10 32
15 11 9
15 12 27
15 13 20
15 14 30
16 0 7
16 1 20
16 2 24
16 3 10
16 4 18
16 5 9
16 6 11
16 7 8
16 8 40
16 9 39
16 10 33
16 11 5
16 12 3
16 13 37
16 14 24
16 15 16
17 0 20
17 1 5
17 2 25
17 3 6
17 4 30
17 5 4
17 6 9
17 7 35
17 8 14
17 9 5
17 10 37
17 11 31
17 12 32
17 13 30
17 14 38
17 15 13
17 16 34
18 0 35
18 1 24
18 2 18
18 3 2
18 4 31
18 5 5
18 6 20
18 7 25
18 8 36
18 9 25
18 10 32
18 11 5
18 12 26
18 13 13
18 14 17
18 15 33
18 16 26
18 17 19
19 0 18
19 1 11
19 2 12
19 3 7
19 4 8
19 5 24
19 6 17
19 7 12
19 8 25
19 9 32
19 10 23
19 11 10
19 12 9
19 13 31
19 14 40
19 15 1
19 16 11
19 17 37
19 18 26
20 0 9
20 1 34
20 2 28
20 3 22
20 4 13
20 5 7
20 6 6
20 7 9
20 8 3
20 9 16
20 10 26
20 11 21
20 12 19
20 13 18
20 14 11
20 15 24
20 16 21
20 17 38
20 18 9
20 19 34
21 0 5
21 1 5
21 2 30
21 3 19
21 4 19
21 5 9
21 6 5
21 7 30
21 8 2
21 9 39
21 10 29
21 11 32
21 12 32
21 13 3
21 14 8
21 15 7
21 16 21
21 17 20
21 18 18
21 19 5
21 20 2
22 0 20
22 1 32
22 2 39
22 3 40
22 4 13
22 5 17
22 6 4
22 7 20
22 8 3
22 9 10
22 10 10
22 11 12
22 12 16
22 13 28
22 14 28
22 15 8
22 16 27
22 17 33
22 18 30
22 19 37
22 20 39
22 21 5
23 0 5
23 1 12
23 2 1
23 3 31
23 4 19
23 5 6
23 6 4
23 7 34
23 8 33
23 9 13
23 10 8
23 11 28
23 12 7
23 13 3
23 14 2
23 15 15
23 16 3
23 17 37
23 18 5
23 19 13
23 20 5
23 21 23
23 22 13
24 0 6
24 1 24
24 2 11
24 3 3
24 4 13
24 5 31
24 6 6
24 7 11
24 8 31
24 9 34
24 10 6
24 11 37
24 12 19
24 13 31
24 14 18
24 15 29
24 16 21
24 17 11
24 18 33
24 19 29
24 20 12
24 21 23
24 22 9
24 23 40
25 0 27
25 1 13
25 2 6
25 3 33
25 4 23
25 5 34
25 6 18
25 7 33
25 8 39
25 9 10
25 10 33
25 11 9
25 12 21
25 13 9
25 14 2
25 15 34
25 16 2
25 17 37
25 18 35
25 19 32
25 20 38
25 21 25
25 22 37
25 23 38
25 24 39
26 0 9
26 1 5
26 2 19
26 3 37
26 4 21
26 5 16
26 6 7
26 7 24
26 8 22
26 9 39
26 10 14
26 11 19
26 12 10
26 13 3
26 14 20
26 15 11
26 16 30
26 17 6
26 18 36
26 19 27
26 20 14
26 21 38
26 22 4
26 23 6
26 24 19
26 25 31
27 0 34
27 1 3
27 2 8
27 3 7
27 4 24
27 5 36
27 6 30
27 7 17
27 8 13
27 9 12
27 10 18
27 11 40
27 12 27
27 13 7
27 14 34
27 15 21
27 16 33
27 17 33
27 18 35
27 19 9
27 20 33
27 21 13
27 22 26
27 23 24
27 24 2
27 25 15
27 26 35
28 0 37
28 1 10
28 2 34
28 3 5
28 4 40
28 5 36
28 6 2
28 7 22
28 8 32
28 9 8
28 10 5
28 11 18
28 12 19
28 13 8
28 14 11
28 15 16
28 16 22
28 17 7
28 18 39
28 19 2
28 20 7
28 21 25
28 22 28
28 23 18
28 24 4
28 25 25
28 26 20
28 27 13
29 0 20
29 1 14
29 2 13
29 3 11
29 4 32
29 5 29
29 6 20
29 7 22
29 8 15
29 9 31
29 10 7
29 11 8
29 12 14
29 13 12
29 14 19
29 15 5
29 16 16
29 17 14
29 18 38
29 19 14
29 20 33
29 21 9
29 22 4
29 23 7
29 24 18
29 25 35
29 26 7
29 27 13
29 28 14
